(set-option :print-success false)
(set-logic QF_UF)
(declare-sort x39 0)
(declare-sort x128 0)
(declare-fun x158 (x128 x128) x128)
(declare-fun x85 () x128)
(declare-fun x62 () x128)
(declare-fun x1 () x128)
(declare-fun x47 () x128)
(declare-fun x43 () x128)
(declare-fun x33 (x128 x128) x128)
(assert (let ((x46 (x158 x1 x1)) (x28 (x158 x47 x43)) (x25 (x158 x47 x47)) (x72 (x158 x62 x43)) (x76 (x158 x43 x47)) (x145 (x158 x1 x47)) (x54 (x158 x62 x1)) (x5 (x158 x85 x62)) (x144 (x158 x47 x85)) (x75 (x158 x43 x62)) (x155 (x158 x47 x62)) (x57 (x158 x43 x43)) (x80 (x158 x85 x85)) (x156 (x158 x62 x62)) (x34 (x158 x62 x47)) (x81 (x158 x85 x43)) (x113 (x158 x43 x85)) (x63 (x158 x85 x1)) (x86 (x158 x62 x85)) (x79 (x158 x47 x1)) (x16 (x158 x1 x62)) (x59 (x158 x85 x47)) (x67 (x158 x1 x85)) (x23 (x158 x1 x43)) (x102 (x158 x43 x1))) (or (or (or (or (and (and (and (= x102 x23) (and (= x57 x57) (= x72 x75))) (= x76 x28)) (= x81 x113)) (and (and (and (and (= x75 x72) (= x156 x156)) (= x16 x54)) (= x34 x155)) (= x86 x5))) (and (and (= x79 x145) (and (= x46 x46) (and (= x16 x54) (= x102 x23)))) (= x67 x63))) (and (and (and (and (= x34 x155) (= x28 x76)) (= x145 x79)) (= x25 x25)) (= x59 x144))) (and (and (= x144 x59) (and (= x63 x67) (and (= x5 x86) (= x113 x81)))) (= x80 x80)))))
(assert (and (and (and (or (or (= x1 (x158 (x158 x47 x1) x47)) (or (= (x158 (x158 x1 x1) x1) x1) (or (= (x158 (x158 x43 x1) x43) x1) (= (x158 (x158 x62 x1) x62) x1)))) (= x1 (x158 (x158 x85 x1) x85))) (and (or (or (= (x158 (x158 x47 x62) x47) x62) (or (= x62 (x158 (x158 x1 x62) x1)) (or (= (x158 (x158 x43 x62) x43) x62) (= (x158 (x158 x62 x62) x62) x62)))) (= x62 (x158 (x158 x85 x62) x85))) (or (or (= x43 (x158 (x158 x47 x43) x47)) (or (or (= (x158 (x158 x43 x43) x43) x43) (= x43 (x158 (x158 x62 x43) x62))) (= x43 (x158 (x158 x1 x43) x1)))) (= x43 (x158 (x158 x85 x43) x85))))) (or (= x47 (x158 (x158 x85 x47) x85)) (or (or (or (= x47 (x158 (x158 x43 x47) x43)) (= x47 (x158 (x158 x62 x47) x62))) (= x47 (x158 (x158 x1 x47) x1))) (= (x158 (x158 x47 x47) x47) x47)))) (or (or (or (= (x158 (x158 x1 x85) x1) x85) (or (= x85 (x158 (x158 x43 x85) x43)) (= x85 (x158 (x158 x62 x85) x62)))) (= x85 (x158 (x158 x47 x85) x47))) (= (x158 (x158 x85 x85) x85) x85))))
(assert (not (and (= (x158 x85 x85) x62) (and (and (and (and (= x47 (x158 x85 x62)) (and (and (= x43 (x158 x47 x47)) (and (and (and (= x1 (x158 x47 x62)) (and (and (and (= x43 (x158 x1 x1)) (and (and (= (x158 x1 x62) x85) (and (= x43 (x158 x43 x85)) (and (and (= (x158 x43 x1) x85) (and (and (= x62 (x158 x43 x62)) (and (and (and (and (= x85 (x158 x62 x43)) (= x43 (x158 x62 x62))) (= (x158 x62 x1) x62)) (= x1 (x158 x62 x47))) (= (x158 x62 x85) x47))) (= (x158 x43 x43) x1))) (= x47 (x158 x43 x47))))) (= (x158 x1 x43) x47))) (= x62 (x158 x1 x47))) (= x1 (x158 x1 x85)))) (= x62 (x158 x47 x43))) (= x47 (x158 x47 x1)))) (= (x158 x47 x85) x85))) (= (x158 x85 x43) x43)) (= (x158 x85 x1) x1)) (= (x158 x85 x47) x85)))))
(assert (let ((x95 (x158 x85 x62)) (x152 (x158 x43 x62)) (x3 (x158 x85 x1)) (x93 (x158 x1 x85)) (x35 (x158 x1 x1)) (x150 (x158 x62 x47)) (x74 (x158 x1 x43)) (x82 (x158 x62 x62)) (x12 (x158 x62 x1)) (x157 (x158 x43 x47)) (x9 (x158 x47 x47)) (x68 (x158 x43 x85)) (x96 (x158 x1 x62)) (x17 (x158 x43 x1)) (x92 (x158 x62 x85)) (x120 (x158 x62 x43)) (x71 (x158 x47 x62)) (x136 (x158 x85 x47)) (x130 (x158 x1 x47)) (x90 (x158 x47 x43)) (x30 (x158 x43 x43)) (x48 (x158 x85 x43)) (x20 (x158 x47 x85)) (x159 (x158 x47 x1)) (x19 (x158 x85 x85))) (let ((x21 (= x30 x1)) (x53 (= x82 x85)) (x81 (= x48 x62)) (x2 (= x1 x74)) (x88 (= x159 x85)) (x83 (= x90 x85)) (x14 (= x120 x85)) (x117 (= x85 x95)) (x108 (= x1 x92)) (x61 (= x12 x1)) (x52 (= x120 x1)) (x66 (= x43 x19)) (x118 (= x35 x43)) (x24 (= x30 x43)) (x32 (= x9 x1)) (x60 (= x47 x35)) (x23 (= x74 x62)) (x73 (= x17 x85)) (x91 (= x71 x47)) (x99 (= x85 x12)) (x106 (= x68 x85)) (x123 (= x43 x90)) (x143 (= x47 x93)) (x122 (= x90 x1)) (x133 (= x85 x19)) (x124 (= x47 x130)) (x89 (= x9 x85)) (x46 (= x62 x35)) (x126 (= x48 x1)) (x154 (= x48 x85)) (x105 (= x136 x47)) (x134 (= x1 x95)) (x155 (= x71 x62)) (x84 (= x152 x1)) (x139 (= x43 x95)) (x94 (= x130 x43)) (x153 (= x47 x68)) (x59 (= x136 x62)) (x50 (= x47 x95)) (x44 (= x3 x1)) (x119 (= x85 x152)) (x4 (= x85 x35)) (x147 (= x1 x159)) (x55 (= x1 x19)) (x65 (= x71 x85)) (x75 (= x152 x62)) (x129 (= x43 x150)) (x45 (= x20 x85)) (x107 (= x92 x85)) (x8 (= x157 x43)) (x131 (= x1 x35)) (x15 (= x17 x1)) (x22 (= x43 x96)) (x140 (= x150 x47)) (x58 (= x43 x93)) (x86 (= x92 x62)) (x109 (= x43 x159)) (x101 (= x1 x20)) (x36 (= x47 x12)) (x149 (= x1 x82)) (x78 (= x1 x68)) (x27 (= x43 x74)) (x64 (= x157 x47)) (x16 (= x62 x96)) (x54 (= x62 x12)) (x28 (= x90 x62)) (x135 (= x47 x17)) (x110 (= x136 x85)) (x5 (= x62 x95)) (x87 (= x47 x9)) (x104 (= x20 x43)) (x138 (= x85 x3)) (x49 (= x150 x85)) (x76 (= x157 x62)) (x100 (= x43 x92)) (x125 (= x157 x1)) (x13 (= x12 x43)) (x10 (= x47 x3)) (x115 (= x130 x1)) (x148 (= x3 x43)) (x72 (= x120 x62)) (x26 (= x17 x43)) (x67 (= x62 x93)) (x113 (= x68 x62)) (x97 (= x43 x68)) (x57 (= x30 x62)) (x146 (= x93 x1)) (x80 (= x62 x19)) (x156 (= x82 x62)) (x112 (= x96 x85)) (x42 (= x47 x120)) (x31 (= x30 x47)) (x137 (= x47 x92)) (x18 (= x20 x47)) (x114 (= x47 x152)) (x102 (= x62 x17)) (x127 (= x43 x152)) (x103 (= x136 x43)) (x121 (= x85 x157)) (x38 (= x96 x1)) (x77 (= x82 x43)) (x6 (= x85 x30)) (x144 (= x62 x20)) (x142 (= x85 x93)) (x145 (= x62 x130)) (x40 (= x9 x43)) (x63 (= x62 x3)) (x70 (= x47 x159)) (x7 (= x43 x120)) (x132 (= x71 x1)) (x151 (= x85 x130)) (x29 (= x47 x19)) (x37 (= x82 x47)) (x11 (= x47 x74)) (x111 (= x74 x85)) (x34 (= x150 x62)) (x25 (= x62 x9)) (x69 (= x1 x150)) (x79 (= x159 x62)) (x51 (= x43 x48)) (x56 (= x96 x47)) (x41 (= x43 x71)) (x98 (= x1 x136)) (x116 (= x90 x47)) (x141 (= x48 x47))) (and (and (or (or (and x29 x29) (or (or (or (and x141 x153) (and x50 x137)) (and x10 x143)) (and x105 x18))) (or (or (or (or (or (or (and x135 x11) (or (and x42 x114) (and x31 x31))) (and x116 x64)) (and x153 x141)) (or (or (or (or (and x37 x37) (and x114 x42)) (and x36 x56)) (and x91 x140)) (and x50 x137))) (or (or (or (and x60 x60) (or (and x36 x56) (and x135 x11))) (and x124 x70)) (and x10 x143))) (or (and x105 x18) (or (and x87 x87) (or (or (and x64 x116) (and x91 x140)) (and x70 x124)))))) (and (and (or (or (or (or (or (or (and x41 x129) (and x123 x8)) (and x109 x94)) (and x40 x40)) (and x103 x104)) (or (or (or (or (or (and x26 x27) (or (and x24 x24) (and x7 x127))) (and x123 x8)) (and x97 x51)) (or (or (or (or (and x127 x7) (and x77 x77)) (and x22 x13)) (and x129 x41)) (and x139 x100))) (or (or (and x109 x94) (or (or (and x22 x13) (and x26 x27)) (and x118 x118))) (and x58 x148)))) (or (and x66 x66) (or (and x103 x104) (or (or (and x51 x97) (and x139 x100)) (and x58 x148))))) (or (or (and x80 x80) (or (and x59 x144) (or (or (and x86 x5) (and x113 x81)) (and x67 x63)))) (or (or (and x59 x144) (or (and x25 x25) (or (and x79 x145) (or (and x28 x76) (and x34 x155))))) (or (or (or (and x86 x5) (or (or (and x54 x16) (or (and x75 x72) (and x156 x156))) (and x155 x34))) (or (and x113 x81) (or (and x76 x28) (or (or (and x75 x72) (and x57 x57)) (and x23 x102))))) (or (or (or (and x46 x46) (or (and x54 x16) (and x23 x102))) (and x145 x79)) (and x67 x63)))))) (or (or (or (and x98 x101) (or (and x32 x32) (or (or (and x122 x125) (and x69 x132)) (and x147 x115)))) (or (or (or (or (or (or (and x52 x84) (and x149 x149)) (and x61 x38)) (and x69 x132)) (and x134 x108)) (or (and x78 x126) (or (and x125 x122) (or (and x15 x2) (or (and x21 x21) (and x52 x84)))))) (or (and x146 x44) (or (or (or (and x15 x2) (and x38 x61)) (and x131 x131)) (and x115 x147))))) (or (and x55 x55) (or (or (or (and x108 x134) (and x126 x78)) (and x146 x44)) (and x98 x101)))))) (or (or (or (or (or (or (or (or (and x119 x14) (and x6 x6)) (and x111 x73)) (and x121 x83)) (and x154 x106)) (or (and x107 x117) (or (and x65 x49) (or (or (and x119 x14) (and x53 x53)) (and x99 x112))))) (or (and x138 x142) (or (and x151 x88) (or (or (and x99 x112) (and x111 x73)) (and x4 x4))))) (or (or (or (and x151 x88) (or (and x49 x65) (and x83 x121))) (and x89 x89)) (and x110 x45))) (or (and x133 x133) (or (and x110 x45) (or (or (and x117 x107) (and x106 x154)) (and x142 x138)))))))))
(assert (let ((x67 (x158 x43 x85)) (x77 (x158 x85 x43)) (x15 (x158 x85 x47)) (x137 (x158 x85 x85)) (x16 (x158 x62 x47)) (x54 (x158 x62 x85)) (x68 (x158 x1 x1)) (x46 (x158 x1 x62)) (x72 (x158 x62 x43)) (x113 (x158 x43 x1)) (x75 (x158 x62 x62)) (x63 (x158 x43 x47)) (x57 (x158 x62 x1)) (x155 (x158 x47 x62)) (x84 (x158 x47 x47)) (x52 (x158 x47 x85)) (x35 (x158 x47 x1)) (x118 (x158 x85 x1)) (x22 (x158 x1 x85)) (x102 (x158 x43 x62)) (x34 (x158 x85 x62)) (x82 (x158 x47 x43)) (x81 (x158 x43 x43)) (x48 (x158 x1 x47)) (x80 (x158 x1 x43))) (let ((x71 (= x47 x81)) (x42 (= x85 x48)) (x94 (= x47 x68)) (x95 (= x85 x72)) (x25 (= x72 x62)) (x117 (= x34 x85)) (x6 (= x67 x1)) (x17 (= x62 x113)) (x130 (= x46 x1)) (x51 (= x82 x62)) (x121 (= x67 x47)) (x105 (= x43 x137)) (x116 (= x62 x52)) (x112 (= x22 x1)) (x19 (= x155 x43)) (x109 (= x47 x113)) (x44 (= x47 x48)) (x65 (= x47 x118)) (x31 (= x85 x84)) (x99 (= x1 x52)) (x2 (= x43 x84)) (x26 (= x43 x68)) (x114 (= x85 x63)) (x88 (= x47 x22)) (x27 (= x113 x43)) (x61 (= x48 x43)) (x50 (= x43 x15)) (x153 (= x43 x67)) (x125 (= x63 x1)) (x144 (= x81 x43)) (x148 (= x16 x62)) (x140 (= x22 x62)) (x12 (= x1 x81)) (x78 (= x63 x47)) (x134 (= x82 x47)) (x83 (= x54 x47)) (x40 (= x80 x85)) (x97 (= x62 x35)) (x24 (= x57 x62)) (x87 (= x43 x118)) (x103 (= x48 x62)) (x143 (= x52 x43)) (x156 (= x62 x75)) (x124 (= x77 x43)) (x45 (= x52 x85)) (x141 (= x54 x43)) (x64 (= x62 x137)) (x7 (= x62 x46)) (x123 (= x47 x80)) (x107 (= x77 x85)) (x136 (= x113 x85)) (x10 (= x43 x22)) (x93 (= x1 x57)) (x139 (= x68 x85)) (x69 (= x1 x35)) (x115 (= x84 x1)) (x146 (= x47 x84)) (x145 (= x102 x62)) (x126 (= x47 x16)) (x147 (= x48 x1)) (x5 (= x81 x62)) (x11 (= x118 x62)) (x3 (= x113 x1)) (x70 (= x34 x43)) (x30 (= x80 x62)) (x152 (= x72 x1)) (x104 (= x62 x84)) (x132 (= x82 x1)) (x28 (= x75 x1)) (x142 (= x67 x85)) (x20 (= x57 x85)) (x89 (= x47 x137)) (x76 (= x47 x75)) (x122 (= x16 x1)) (x56 (= x62 x34)) (x32 (= x155 x47)) (x29 (= x1 x77)) (x135 (= x15 x62)) (x59 (= x43 x72)) (x58 (= x62 x63)) (x66 (= x82 x43)) (x108 (= x47 x35)) (x120 (= x1 x102)) (x131 (= x1 x155)) (x4 (= x77 x47)) (x55 (= x35 x85)) (x79 (= x85 x75)) (x36 (= x62 x77)) (x98 (= x85 x155)) (x119 (= x15 x1)) (x110 (= x85 x22)) (x73 (= x47 x34)) (x90 (= x43 x80)) (x14 (= x1 x54)) (x157 (= x46 x43)) (x74 (= x68 x62)) (x138 (= x54 x85)) (x13 (= x57 x43)) (x129 (= x46 x47)) (x23 (= x43 x75)) (x91 (= x67 x62)) (x8 (= x57 x47)) (x92 (= x85 x102)) (x60 (= x62 x54)) (x41 (= x68 x1)) (x101 (= x85 x82)) (x149 (= x43 x35)) (x21 (= x16 x43)) (x49 (= x15 x47)) (x133 (= x85 x137)) (x106 (= x85 x15)) (x111 (= x137 x1)) (x96 (= x47 x102)) (x18 (= x1 x34)) (x53 (= x1 x118)) (x151 (= x47 x52)) (x86 (= x43 x102)) (x159 (= x80 x1)) (x127 (= x81 x85)) (x154 (= x85 x118)) (x9 (= x46 x85)) (x100 (= x62 x155)) (x37 (= x16 x85)) (x38 (= x63 x43)) (x150 (= x72 x47))) (and (and (and (and (and (and (and (or (or (or x129 (or x96 x76)) x32) x73) (or (or (or x8 (or x150 x76)) x126) x83)) (and (and (or (or x122 (or (or x152 x28) x93)) x14) (or (or x131 (or (or x28 x120) x130)) x18)) (and (and (or x141 (or x21 (or (or x23 x59) x13))) (or (or (or (or x23 x86) x157) x19) x70)) (and (or (or x100 (or x7 (or x145 x156))) x56) (or (or x148 (or (or x25 x156) x24)) x60))))) (and (or (or (or x20 (or x79 x95)) x37) x138) (or (or x98 (or (or x92 x79) x9)) x117))) (and (and (or (or x114 (or x136 (or x127 x92))) x142) (or (or (or (or x95 x127) x40) x101) x107)) (and (and (and (or (or x132 (or (or x12 x152) x159)) x29) (or (or (or (or x12 x120) x3) x125) x6)) (and (and (or (or (or x30 (or x25 x5)) x51) x36) (or (or (or x17 (or x145 x5)) x58) x91)) (and (or x153 (or x38 (or x27 (or x144 x86)))) (or x124 (or (or x90 (or x144 x59)) x66))))) (and (or x121 (or x78 (or (or x96 x71) x109))) (or x4 (or (or (or x71 x150) x123) x134)))))) (and (and (or (or (or x139 (or x136 x20)) x55) x154) (or (or x42 (or (or x40 x9) x139)) x110)) (and (and (and (and (or (or x149 (or (or x13 x27) x26)) x87) (or (or (or x26 (or x157 x90)) x61) x10)) (and (or x11 (or (or (or x24 x17) x74) x97)) (or (or (or (or x30 x7) x74) x103) x140))) (and (or x112 (or (or (or x159 x130) x41) x147)) (or (or x69 (or (or x93 x3) x41)) x53))) (and (or (or (or (or x8 x109) x94) x108) x65) (or (or (or x94 (or x129 x123)) x44) x88))))) (and (and (or (or (or x55 (or x101 x98)) x31) x45) (or x106 (or x31 (or (or x37 x114) x42)))) (and (and (and (or x99 (or x115 (or x69 (or x132 x131)))) (or (or (or x147 (or x122 x125)) x115) x119)) (and (and (or x143 (or x2 (or (or x19 x66) x149))) (or (or x2 (or x61 (or x38 x21))) x50)) (and (or x116 (or x104 (or x97 (or x100 x51)))) (or x135 (or (or x103 (or x148 x58)) x104))))) (and (or (or (or x108 (or x134 x32)) x146) x151) (or x49 (or x146 (or x44 (or x126 x78)))))))) (and (and (or x133 (or (or (or x142 x138) x110) x45)) (or x133 (or x106 (or (or x117 x107) x154)))) (and (and (or (or (or (or x73 x4) x65) x49) x89) (or x89 (or x151 (or (or x83 x121) x88)))) (and (and (or x111 (or (or (or x6 x14) x112) x99)) (or (or (or (or x29 x18) x53) x119) x111)) (and (and (or x64 (or (or (or x60 x91) x140) x116)) (or x64 (or (or x11 (or x36 x56)) x135))) (and (or (or (or (or x153 x141) x10) x143) x105) (or (or x50 (or x87 (or x70 x124))) x105))))))))))
(assert (let ((x57 (x158 x47 x47)) (x16 (x158 x85 x85)) (x72 (x158 x1 x1)) (x75 (x158 x43 x43)) (x156 (x158 x62 x62))) (or (and (not (= x85 x16)) (and (not (= x57 x85)) (and (and (not (= x156 x85)) (not (= x85 x75))) (not (= x85 x72))))) (or (or (and (not (= x1 x16)) (and (and (and (not (= x1 x156)) (not (= x75 x1))) (not (= x1 x72))) (not (= x1 x57)))) (or (and (not (= x16 x43)) (and (and (not (= x72 x43)) (and (not (= x75 x43)) (not (= x43 x156)))) (not (= x57 x43)))) (and (and (and (not (= x62 x72)) (and (not (= x62 x156)) (not (= x75 x62)))) (not (= x57 x62))) (not (= x62 x16))))) (and (not (= x47 x16)) (and (not (= x57 x47)) (and (not (= x47 x72)) (and (not (= x156 x47)) (not (= x47 x75))))))))))
(assert (or (or (or (= x1 (x158 (x158 x1 x1) x1)) (or (= x62 (x158 (x158 x62 x62) x62)) (= x43 (x158 (x158 x43 x43) x43)))) (= (x158 (x158 x47 x47) x47) x47)) (= x85 (x158 (x158 x85 x85) x85))))
(assert (and (= x47 (x158 x85 x62)) (and (= (x158 x47 x62) x1) (and (= x43 (x158 x62 x62)) (= x62 (x158 x85 x85))))))
(assert (not (and (and (and (= (x158 x85 x1) x1) (and (= x85 (x158 x85 x43)) (and (and (and (and (= (x158 x47 x1) x85) (and (and (= x1 (x158 x47 x62)) (and (and (and (= x47 (x158 x1 x1)) (and (and (and (and (= (x158 x43 x47) x1) (and (= (x158 x43 x1) x43) (and (= x62 (x158 x43 x43)) (and (= x85 (x158 x43 x62)) (and (and (and (= x62 (x158 x62 x1)) (and (= (x158 x62 x43) x1) (= (x158 x62 x62) x43))) (= (x158 x62 x47) x47)) (= x85 (x158 x62 x85))))))) (= (x158 x43 x85) x47)) (= (x158 x1 x62) x62)) (= (x158 x1 x43) x43))) (= x85 (x158 x1 x47))) (= (x158 x1 x85) x1))) (= (x158 x47 x43) x47))) (= x62 (x158 x47 x47))) (= (x158 x47 x85) x43)) (= (x158 x85 x62) x47)))) (= (x158 x85 x47) x43)) (= (x158 x85 x85) x62))))
(assert (and (and (not (= (x158 x47 x47) x47)) (and (and (not (= x62 (x158 x62 x62))) (not (= x43 (x158 x43 x43)))) (not (= (x158 x1 x1) x1)))) (not (= (x158 x85 x85) x85))))
(assert (let ((x34 (x158 x1 x62)) (x59 (x158 x85 x1)) (x113 (x158 x47 x85)) (x81 (x158 x47 x47)) (x23 (x158 x43 x43)) (x16 (x158 x62 x85)) (x67 (x158 x85 x43)) (x144 (x158 x85 x47)) (x54 (x158 x43 x62)) (x57 (x158 x62 x47)) (x63 (x158 x85 x62)) (x5 (x158 x47 x43)) (x102 (x158 x43 x1)) (x156 (x158 x62 x62)) (x80 (x158 x85 x85)) (x28 (x158 x1 x43)) (x155 (x158 x43 x85)) (x79 (x158 x1 x47)) (x145 (x158 x1 x85)) (x75 (x158 x62 x43)) (x25 (x158 x47 x62)) (x46 (x158 x43 x47)) (x86 (x158 x47 x1)) (x72 (x158 x62 x1)) (x76 (x158 x1 x1))) (and (or (or (and (and (not (= x47 (x158 x81 x47))) (and (and (not (= x43 (x158 x5 x47))) (not (= x62 (x158 x25 x47)))) (not (= (x158 x86 x47) x1)))) (not (= (x158 x113 x47) x85))) (or (and (not (= (x158 x145 x1) x85)) (and (not (= x47 (x158 x79 x1))) (and (not (= (x158 x76 x1) x1)) (and (not (= (x158 x34 x1) x62)) (not (= (x158 x28 x1) x43)))))) (or (and (not (= (x158 x16 x62) x85)) (and (and (and (not (= x62 (x158 x156 x62))) (not (= x43 (x158 x75 x62)))) (not (= x1 (x158 x72 x62)))) (not (= (x158 x57 x62) x47)))) (and (and (not (= (x158 x46 x43) x47)) (and (not (= x1 (x158 x102 x43))) (and (not (= x43 (x158 x23 x43))) (not (= x62 (x158 x54 x43)))))) (not (= x85 (x158 x155 x43))))))) (and (and (not (= (x158 x144 x85) x47)) (and (and (not (= (x158 x63 x85) x62)) (not (= (x158 x67 x85) x43))) (not (= (x158 x59 x85) x1)))) (not (= (x158 x80 x85) x85)))) (or (or (or (or (and (not (= (x158 x85 x16) x62)) (and (and (and (not (= (x158 x43 x75) x62)) (not (= (x158 x62 x156) x62))) (not (= x62 (x158 x1 x72)))) (not (= x62 (x158 x47 x57))))) (and (and (not (= x43 (x158 x47 x46))) (and (not (= x43 (x158 x1 x102))) (and (not (= (x158 x43 x23) x43)) (not (= x43 (x158 x62 x54)))))) (not (= x43 (x158 x85 x155))))) (and (not (= (x158 x85 x145) x1)) (and (not (= x1 (x158 x47 x79))) (and (and (not (= (x158 x43 x28) x1)) (not (= (x158 x62 x34) x1))) (not (= x1 (x158 x1 x76))))))) (and (not (= (x158 x85 x113) x47)) (and (not (= (x158 x47 x81) x47)) (and (not (= (x158 x1 x86) x47)) (and (not (= (x158 x62 x25) x47)) (not (= x47 (x158 x43 x5)))))))) (and (and (and (and (not (= x85 (x158 x43 x67))) (not (= x85 (x158 x62 x63)))) (not (= (x158 x1 x59) x85))) (not (= x85 (x158 x47 x144)))) (not (= x85 (x158 x85 x80))))))))
(assert (and (and (not (= x85 x1)) (and (not (= x47 x1)) (and (and (and (not (= x1 x43)) (and (not (= x62 x85)) (and (and (not (= x62 x1)) (not (= x62 x43))) (not (= x62 x47))))) (not (= x47 x43))) (not (= x43 x85))))) (not (= x85 x47))))
(assert (let ((x28 (x158 x1 x43)) (x86 (x158 x47 x1)) (x102 (x158 x43 x1)) (x5 (x158 x47 x43)) (x113 (x158 x47 x85)) (x16 (x158 x62 x85)) (x155 (x158 x43 x85)) (x76 (x158 x1 x1)) (x63 (x158 x85 x62)) (x34 (x158 x1 x62)) (x57 (x158 x62 x47)) (x79 (x158 x1 x47)) (x81 (x158 x47 x47)) (x67 (x158 x85 x43)) (x25 (x158 x47 x62)) (x144 (x158 x85 x47)) (x145 (x158 x1 x85)) (x156 (x158 x62 x62)) (x54 (x158 x43 x62)) (x46 (x158 x43 x47)) (x59 (x158 x85 x1)) (x72 (x158 x62 x1)) (x23 (x158 x43 x43)) (x75 (x158 x62 x43)) (x80 (x158 x85 x85))) (and (and (and (and (and (and (and (and (or (or (or (= x156 x1) (or (= x156 x43) (= x156 x62))) (= x47 x156)) (= x156 x85)) (or (= x75 x85) (or (= x47 x75) (or (= x75 x1) (or (= x75 x62) (= x43 x75)))))) (or (or (or (= x72 x1) (or (= x72 x43) (= x62 x72))) (= x47 x72)) (= x85 x72))) (or (or (or (= x1 x57) (or (= x57 x62) (= x57 x43))) (= x57 x47)) (= x57 x85))) (or (= x16 x85) (or (or (= x1 x16) (or (= x43 x16) (= x62 x16))) (= x16 x47)))) (and (or (= x155 x85) (or (= x47 x155) (or (or (= x155 x43) (= x155 x62)) (= x1 x155)))) (and (and (or (or (= x47 x102) (or (= x1 x102) (or (= x102 x43) (= x62 x102)))) (= x85 x102)) (and (or (= x85 x23) (or (= x47 x23) (or (= x1 x23) (or (= x23 x62) (= x23 x43))))) (or (= x54 x85) (or (= x54 x47) (or (= x54 x1) (or (= x54 x62) (= x43 x54))))))) (or (or (= x47 x46) (or (= x1 x46) (or (= x43 x46) (= x62 x46)))) (= x46 x85))))) (and (or (or (or (= x1 x145) (or (= x62 x145) (= x145 x43))) (= x145 x47)) (= x85 x145)) (and (or (= x79 x85) (or (= x47 x79) (or (= x79 x1) (or (= x43 x79) (= x62 x79))))) (and (or (or (= x47 x76) (or (or (= x76 x43) (= x62 x76)) (= x76 x1))) (= x76 x85)) (and (or (or (or (or (= x28 x43) (= x28 x62)) (= x1 x28)) (= x28 x47)) (= x85 x28)) (or (= x85 x34) (or (or (= x34 x1) (or (= x43 x34) (= x34 x62))) (= x47 x34)))))))) (and (and (and (and (or (or (= x47 x5) (or (= x1 x5) (or (= x5 x62) (= x43 x5)))) (= x5 x85)) (or (or (= x47 x25) (or (= x25 x1) (or (= x25 x62) (= x25 x43)))) (= x85 x25))) (or (= x86 x85) (or (= x86 x47) (or (or (= x86 x43) (= x62 x86)) (= x1 x86))))) (or (= x81 x85) (or (or (or (= x81 x43) (= x81 x62)) (= x1 x81)) (= x81 x47)))) (or (= x113 x85) (or (or (= x1 x113) (or (= x113 x62) (= x43 x113))) (= x47 x113))))) (and (and (and (or (or (or (= x1 x59) (or (= x43 x59) (= x62 x59))) (= x47 x59)) (= x85 x59)) (and (or (or (= x47 x63) (or (= x63 x1) (or (= x63 x62) (= x63 x43)))) (= x85 x63)) (or (or (= x47 x67) (or (or (= x67 x62) (= x43 x67)) (= x1 x67))) (= x85 x67)))) (or (= x144 x85) (or (= x47 x144) (or (= x144 x1) (or (= x43 x144) (= x62 x144)))))) (or (= x80 x85) (or (or (or (= x43 x80) (= x80 x62)) (= x80 x1)) (= x47 x80)))))))
(assert (let ((x102 (x158 x1 x43)) (x67 (x158 x43 x85)) (x23 (x158 x43 x43)) (x80 (x158 x85 x85)) (x59 (x158 x1 x85)) (x28 (x158 x43 x1)) (x75 (x158 x43 x62)) (x86 (x158 x1 x47)) (x155 (x158 x85 x43)) (x57 (x158 x47 x62)) (x145 (x158 x85 x1)) (x25 (x158 x62 x47)) (x34 (x158 x62 x1)) (x46 (x158 x47 x43)) (x72 (x158 x1 x62)) (x76 (x158 x1 x1)) (x79 (x158 x47 x1)) (x81 (x158 x47 x47)) (x63 (x158 x62 x85)) (x144 (x158 x47 x85)) (x5 (x158 x43 x47)) (x54 (x158 x62 x43)) (x113 (x158 x85 x47)) (x156 (x158 x62 x62)) (x16 (x158 x85 x62))) (and (and (and (and (and (and (and (and (and (not (= x46 x79)) (and (and (not (= x81 x57)) (and (not (= x57 x79)) (not (= x57 x46)))) (not (= x144 x57)))) (not (= x81 x46))) (not (= x46 x144))) (not (= x81 x79))) (not (= x144 x79))) (not (= x144 x81))) (and (and (and (and (and (not (= x102 x59)) (and (not (= x102 x86)) (and (not (= x102 x76)) (and (not (= x72 x59)) (and (not (= x86 x72)) (and (not (= x102 x72)) (not (= x72 x76)))))))) (not (= x76 x86))) (not (= x76 x59))) (not (= x59 x86))) (and (and (and (and (not (= x5 x28)) (and (and (and (and (and (and (not (= x75 x23)) (not (= x28 x75))) (not (= x5 x75))) (not (= x67 x75))) (not (= x23 x28))) (not (= x5 x23))) (not (= x23 x67)))) (not (= x67 x28))) (not (= x67 x5))) (and (not (= x63 x25)) (and (not (= x63 x34)) (and (and (and (and (not (= x34 x54)) (and (and (and (not (= x156 x34)) (not (= x54 x156))) (not (= x25 x156))) (not (= x63 x156)))) (not (= x25 x54))) (not (= x54 x63))) (not (= x34 x25)))))))) (and (not (= x113 x80)) (and (and (and (not (= x155 x80)) (and (and (not (= x155 x145)) (and (not (= x16 x80)) (and (not (= x113 x16)) (and (not (= x16 x155)) (not (= x16 x145)))))) (not (= x113 x155)))) (not (= x113 x145))) (not (= x145 x80))))) (and (and (and (and (not (= x145 x79)) (and (and (not (= x76 x79)) (and (not (= x28 x145)) (and (and (and (not (= x34 x145)) (and (not (= x79 x34)) (and (not (= x28 x34)) (not (= x34 x76))))) (not (= x76 x28))) (not (= x28 x79))))) (not (= x145 x76)))) (and (and (and (not (= x16 x72)) (and (not (= x72 x57)) (and (and (and (not (= x75 x72)) (and (not (= x156 x16)) (and (not (= x57 x156)) (and (not (= x156 x72)) (not (= x75 x156)))))) (not (= x57 x75))) (not (= x75 x16))))) (not (= x16 x57))) (and (and (and (and (and (and (not (= x102 x23)) (and (and (not (= x46 x54)) (and (not (= x54 x102)) (not (= x23 x54)))) (not (= x54 x155)))) (not (= x46 x23))) (not (= x23 x155))) (not (= x46 x102))) (not (= x102 x155))) (not (= x46 x155))))) (and (not (= x81 x113)) (and (and (not (= x86 x81)) (and (and (not (= x81 x5)) (and (not (= x86 x5)) (and (and (and (not (= x25 x86)) (not (= x25 x5))) (not (= x25 x81))) (not (= x25 x113))))) (not (= x5 x113)))) (not (= x113 x86))))) (and (and (not (= x59 x80)) (and (and (and (and (not (= x59 x67)) (and (not (= x63 x80)) (and (not (= x63 x144)) (and (not (= x67 x63)) (not (= x63 x59)))))) (not (= x67 x144))) (not (= x80 x67))) (not (= x59 x144)))) (not (= x144 x80)))))))
(assert (or (and (and (and (not (= (x158 x85 (x158 x85 x1)) x1)) (and (not (= (x158 x85 (x158 x85 x43)) x43)) (not (= x62 (x158 x85 (x158 x85 x62)))))) (not (= (x158 x85 (x158 x85 x47)) x47))) (not (= (x158 x85 (x158 x85 x85)) x85))) (or (or (and (and (not (= x47 (x158 x1 (x158 x1 x47)))) (and (not (= (x158 x1 (x158 x1 x1)) x1)) (and (not (= (x158 x1 (x158 x1 x43)) x43)) (not (= x62 (x158 x1 (x158 x1 x62))))))) (not (= (x158 x1 (x158 x1 x85)) x85))) (or (and (not (= x85 (x158 x62 (x158 x62 x85)))) (and (not (= x47 (x158 x62 (x158 x62 x47)))) (and (and (not (= x62 (x158 x62 (x158 x62 x62)))) (not (= x43 (x158 x62 (x158 x62 x43))))) (not (= x1 (x158 x62 (x158 x62 x1))))))) (and (not (= x85 (x158 x43 (x158 x43 x85)))) (and (and (and (not (= (x158 x43 (x158 x43 x43)) x43)) (not (= (x158 x43 (x158 x43 x62)) x62))) (not (= (x158 x43 (x158 x43 x1)) x1))) (not (= (x158 x43 (x158 x43 x47)) x47)))))) (and (not (= (x158 x47 (x158 x47 x85)) x85)) (and (and (not (= x1 (x158 x47 (x158 x47 x1)))) (and (not (= (x158 x47 (x158 x47 x43)) x43)) (not (= x62 (x158 x47 (x158 x47 x62)))))) (not (= (x158 x47 (x158 x47 x47)) x47)))))))
(check-sat)
(exit)
